NAME : XML100_3274_22
DIMENSION : 101
NB_CLUSTERS : 4
CLUSTERING_ALG : KMedoids
CLUSTERING_PARAMS : k(3)
CLUSTERS
1 0
2 1 2 4 5 7 8 11 13 14 16 21 22 24 28 33 36 38 39 40 41 44 45 53 55 60 67 71 76 78 82 85 86 88 89 92 93 94 96 99
3 3 6 12 17 18 19 20 23 27 29 30 31 35 37 43 46 47 50 54 56 58 59 62 66 69 70 72 73 74 77 79 80 81 83 91 98 100
4 9 10 15 25 26 32 34 42 48 49 51 52 57 61 63 64 65 68 75 84 87 90 95 97
EOF